nat_inputs/AUFLIA/20170829-Rodin/smt8466284514793256686.smt2
(set-info :smt-lib-version 2.6)
(set-logic ALL)
(declare-sort Nat$ 0)
(declare-fun to_int$ (Nat$) Int)
(set-info :source |Generator: Rodin SMT Plug-in|)
(set-info :license "https://creativecommons.org/licenses/by-nc/4.0/")
(set-info :category "industrial")
(set-info :status unsat)
(declare-sort A 0)
(declare-sort PA 0)
(declare-sort PAA 0)
(declare-sort PZA 0)
(declare-fun MS (A PA) Bool)
(declare-fun MS0 (A A PAA) Bool)
(declare-fun MS1 (Int A PZA) Bool)
(declare-fun cnc (PZA PZA PZA) Bool)
(declare-fun dist (A A Int) Bool)
(declare-fun length (PZA Int) Bool)
(declare-fun path (A A PZA) Bool)
(declare-fun reverse (PZA PZA) Bool)
(declare-fun seq (PZA) Bool)
(declare-fun shpath (A A PZA) Bool)
(declare-fun a () PA)
(declare-fun c () PAA)
(declare-fun candidate () PA)
(declare-fun r () PAA)
(declare-fun t () A)
(declare-fun x () A)
(declare-fun y1 () A)
(declare-fun z () A)
(assert (forall ((x407 A) (x408 A)) (exists ((X PAA)) (and (MS0 x407 x408 X) (forall ((y26 A) (y27 A)) (=> (MS0 y26 y27 X) (and (= y26 x407) (= y27 x408))))))))
(assert (forall ((x409 A)) (exists ((X0 PA)) (and (MS x409 X0) (forall ((y28 A)) (=> (MS y28 X0) (= y28 x409)))))))
(assert (forall ((x410 Int) (x411 A)) (exists ((X1 PZA)) (and (MS1 x410 x411 X1) (forall ((y29 Int) (y30 A)) (=> (MS1 y29 y30 X1) (and (= y29 x410) (= y30 x411))))))))
(assert (! (forall ((x0 A) (y10 A) (y2 A) (z0 A) (q PZA)) (=> (and (MS x0 a) (MS y10 a) (MS z0 a) (not (= z0 x0)) (not (= z0 y10)) (forall ((t0 A)) (=> (and (MS t0 a) (MS0 z0 t0 r)) (forall ((x1 Int) (x2 Int)) (=> (and (dist x0 t0 x2) (dist x0 z0 x1)) (<= x2 x1))))) (path x0 y10 q) (not (exists ((x3 Int)) (MS1 x3 z0 q))) (MS y2 a) (not (= y2 y10)) (not (= z0 y2)) (exists ((x4 Int)) (MS1 x4 y2 q))) (exists ((p PZA)) (and (path y10 y2 p) (not (exists ((x5 Int)) (MS1 x5 z0 p))))))) :named hyp1))
(assert (! (forall ((x6 A) (y11 A) (y20 A) (z1 A) (q0 PZA)) (=> (and (MS x6 a) (MS y11 a) (MS z1 a) (not (= z1 x6)) (not (= z1 y11)) (forall ((t1 A)) (=> (and (MS t1 a) (MS0 z1 t1 r)) (forall ((x7 Int) (x8 Int)) (=> (and (dist x6 t1 x8) (dist x6 z1 x7)) (<= x8 x7))))) (path x6 y11 q0) (not (exists ((x9 Int)) (MS1 x9 z1 q0))) (MS y20 a) (not (= y20 y11)) (not (= z1 y20)) (not (exists ((x10 Int)) (MS1 x10 y20 q0))) (MS0 y20 x6 r)) (exists ((p0 PZA)) (and (path y11 y20 p0) (not (exists ((x11 Int)) (MS1 x11 z1 p0))))))) :named hyp2))
(assert (! (MS x a) :named hyp3))
(assert (! (MS y1 a) :named hyp4))
(assert (! (MS z a) :named hyp5))
(assert (! (not (= z x)) :named hyp6))
(assert (! (not (= z y1)) :named hyp7))
(assert (! (MS t a) :named hyp8))
(assert (! (MS0 z t r) :named hyp9))
(assert (! (forall ((x12 A) (x13 A)) (=> (MS0 x12 x13 r) (and (MS x12 a) (MS x13 a)))) :named hyp10))
(assert (! (not (forall ((x14 A) (x15 A)) (not (MS0 x14 x15 r)))) :named hyp11))
(assert (! (forall ((x16 A) (x17 A)) (=> (MS0 x16 x17 c) (and (MS x16 a) (MS x17 a)))) :named hyp12))
(assert (! (forall ((x18 A) (x19 A)) (=> (MS0 x18 x19 r) (MS0 x18 x19 c))) :named hyp13))
(assert (! (forall ((x20 A) (x21 A)) (=> (exists ((x22 A)) (and (MS0 x20 x22 c) (MS0 x22 x21 r))) (MS0 x20 x21 c))) :named hyp14))
(assert (! (forall ((s PAA)) (=> (and (forall ((x23 A) (x24 A)) (=> (MS0 x23 x24 s) (and (MS x23 a) (MS x24 a)))) (forall ((x25 A) (x26 A)) (=> (MS0 x25 x26 r) (MS0 x25 x26 s))) (forall ((x27 A) (x28 A)) (=> (exists ((x29 A)) (and (MS0 x27 x29 s) (MS0 x29 x28 r))) (MS0 x27 x28 s)))) (forall ((x30 A) (x31 A)) (=> (MS0 x30 x31 c) (MS0 x30 x31 s))))) :named hyp15))
(assert (! (forall ((x32 A)) (= (exists ((x33 A)) (MS0 x32 x33 r)) (MS x32 a))) :named hyp16))
(assert (! (forall ((x34 A)) (= (exists ((x35 A)) (MS0 x34 x35 c)) (MS x34 a))) :named hyp17))
(assert (! (forall ((x36 A)) (=> (exists ((x37 A)) (MS0 x36 x37 r)) (exists ((x38 A)) (MS0 x36 x38 c)))) :named hyp18))
(assert (! (forall ((x39 A) (x40 A)) (= (MS0 x39 x40 c) (or (MS0 x39 x40 r) (exists ((x41 A)) (and (MS0 x39 x41 c) (MS0 x41 x40 r)))))) :named hyp19))
(assert (! (forall ((x42 A) (y A)) (=> (and (MS x42 a) (MS y a)) (forall ((s0 PZA) (n Nat$)) (=> (and (<= 0 (to_int$ n)) (< 1 (to_int$ n)) (forall ((x43 Int) (x44 A)) (=> (MS1 x43 x44 s0) (and (<= 1 x43) (<= x43 (to_int$ n)) (MS x44 a)))) (forall ((x45 Int) (x46 A) (x47 A)) (=> (and (MS1 x45 x46 s0) (MS1 x45 x47 s0)) (= x46 x47))) (forall ((x48 Int)) (=> (and (<= 1 x48) (<= x48 (to_int$ n))) (exists ((x49 A)) (MS1 x48 x49 s0))))) (and (exists ((x50 A) (x51 Int)) (and (= x51 1) (MS1 x51 x50 s0))) (forall ((x52 Int) (x53 A) (x54 A)) (=> (and (MS1 x52 x53 s0) (MS1 x52 x54 s0)) (= x53 x54))) (=> (exists ((x55 Int)) (and (= x55 1) (MS1 x55 x42 s0))) (and (exists ((x56 A)) (MS1 (to_int$ n) x56 s0)) (=> (MS1 (to_int$ n) y s0) (forall ((i Int)) (=> (and (<= 1 i) (<= i (- (to_int$ n) 1))) (and (exists ((x57 A)) (MS1 i x57 s0)) (exists ((x58 A) (x59 Int)) (and (= x59 (+ i 1)) (MS1 x59 x58 s0)))))))))))))) :named hyp20))
(assert (! (forall ((x60 A) (x61 A)) (=> (exists ((x62 PZA)) (path x60 x61 x62)) (MS0 x60 x61 c))) :named hyp21))
(assert (! (forall ((x63 A) (x64 A)) (=> (MS0 x63 x64 c) (exists ((x65 PZA)) (path x63 x64 x65)))) :named hyp22))
(assert (! (forall ((x66 A) (x67 A)) (=> (and (MS x66 a) (MS x67 a)) (exists ((x68 PZA)) (path x66 x67 x68)))) :named hyp23))
(assert (! (forall ((x69 PZA)) (= (seq x69) (exists ((s1 PZA)) (and (exists ((n0 Nat$)) (and (<= 0 (to_int$ n0)) (forall ((x70 Int) (x71 A)) (=> (MS1 x70 x71 s1) (and (<= 1 x70) (<= x70 (to_int$ n0))))) (forall ((x72 Int) (x73 A) (x74 A)) (=> (and (MS1 x72 x73 s1) (MS1 x72 x74 s1)) (= x73 x74))) (forall ((x75 Int)) (=> (and (<= 1 x75) (<= x75 (to_int$ n0))) (exists ((x76 A)) (MS1 x75 x76 s1)))))) (forall ((x77 Int) (x78 A)) (= (MS1 x77 x78 x69) (MS1 x77 x78 s1))))))) :named hyp24))
(assert (! (forall ((n1 Nat$) (s2 PZA)) (=> (and (<= 0 (to_int$ n1)) (forall ((x79 Int) (x80 A)) (=> (MS1 x79 x80 s2) (and (<= 1 x79) (<= x79 (to_int$ n1))))) (forall ((x81 Int) (x82 A) (x83 A)) (=> (and (MS1 x81 x82 s2) (MS1 x81 x83 s2)) (= x82 x83))) (forall ((x84 Int)) (=> (and (<= 1 x84) (<= x84 (to_int$ n1))) (exists ((x85 A)) (MS1 x84 x85 s2))))) (seq s2))) :named hyp25))
(assert (! (and (forall ((x86 PZA) (x87 Nat$)) (=> (length x86 (to_int$ x87)) (and (seq x86) (<= 0 (to_int$ x87))))) (forall ((x88 PZA) (x89 Int) (x90 Int)) (=> (and (length x88 x89) (length x88 x90)) (= x89 x90))) (forall ((x91 PZA)) (=> (seq x91) (exists ((x92 Int)) (length x91 x92))))) :named hyp26))
(assert (! (forall ((n2 Nat$) (s3 PZA)) (=> (and (<= 0 (to_int$ n2)) (forall ((x93 Int) (x94 A)) (=> (MS1 x93 x94 s3) (and (<= 1 x93) (<= x93 (to_int$ n2))))) (forall ((x95 Int) (x96 A) (x97 A)) (=> (and (MS1 x95 x96 s3) (MS1 x95 x97 s3)) (= x96 x97))) (forall ((x98 Int)) (=> (and (<= 1 x98) (<= x98 (to_int$ n2))) (exists ((x99 A)) (MS1 x98 x99 s3))))) (length s3 (to_int$ n2)))) :named hyp27))
(assert (! (forall ((s4 PZA)) (=> (seq s4) (and (forall ((x100 Int) (x101 A)) (=> (MS1 x100 x101 s4) (and (<= 1 x100) (forall ((x102 Int)) (=> (length s4 x102) (<= x100 x102)))))) (forall ((x103 Int) (x104 A) (x105 A)) (=> (and (MS1 x103 x104 s4) (MS1 x103 x105 s4)) (= x104 x105))) (forall ((x106 Int)) (=> (and (<= 1 x106) (forall ((x107 Int)) (=> (length s4 x107) (<= x106 x107)))) (exists ((x108 A)) (MS1 x106 x108 s4))))))) :named hyp28))
(assert (! (forall ((x109 PZA) (x110 PZA) (x111 PZA)) (= (cnc x109 x110 x111) (exists ((s10 PZA) (s20 PZA)) (and (seq s10) (seq s20) (forall ((x112 Int) (x113 A)) (= (MS1 x112 x113 x109) (MS1 x112 x113 s10))) (forall ((x114 Int) (x115 A)) (= (MS1 x114 x115 x110) (MS1 x114 x115 s20))) (forall ((x116 Int) (x117 A)) (= (MS1 x116 x117 x111) (or (exists ((i0 Int)) (and (<= 1 i0) (forall ((x118 Int)) (=> (length s10 x118) (<= i0 x118))) (= x116 i0) (MS1 i0 x117 s10))) (exists ((i1 Int)) (and (forall ((x119 Int)) (=> (length s10 x119) (<= (+ x119 1) i1))) (forall ((x120 Int) (x121 Int)) (=> (and (length s10 x121) (length s20 x120)) (<= i1 (+ x121 x120)))) (= x116 i1) (exists ((x122 Int)) (and (forall ((x123 Int)) (=> (length s10 x123) (= x122 (- i1 x123)))) (MS1 x122 x117 s20)))))))))))) :named hyp29))
(assert (! (and (forall ((x124 PZA) (x125 PZA) (x126 PZA)) (=> (cnc x124 x125 x126) (and (seq x124) (seq x125) (seq x126)))) (forall ((x127 PZA) (x128 PZA) (x129 PZA) (x130 PZA)) (=> (and (cnc x127 x128 x129) (cnc x127 x128 x130)) (forall ((x131 Int) (x132 A)) (= (MS1 x131 x132 x129) (MS1 x131 x132 x130))))) (forall ((x133 PZA) (x134 PZA)) (=> (and (seq x133) (seq x134)) (exists ((x135 PZA)) (cnc x133 x134 x135))))) :named hyp30))
(assert (! (forall ((s11 PZA) (s21 PZA)) (=> (and (seq s11) (seq s21)) (exists ((x136 PZA) (x137 Int)) (and (cnc s11 s21 x136) (forall ((x138 Int) (x139 Int)) (=> (and (length s11 x139) (length s21 x138)) (= x137 (+ x139 x138)))) (length x136 x137))))) :named hyp31))
(assert (! (forall ((s12 PZA) (s22 PZA)) (=> (and (seq s12) (seq s22)) (forall ((x140 Int)) (= (exists ((x141 A) (x142 PZA)) (and (cnc s12 s22 x142) (MS1 x140 x141 x142))) (and (<= 1 x140) (forall ((x143 Int) (x144 Int)) (=> (and (length s12 x144) (length s22 x143)) (<= x140 (+ x144 x143))))))))) :named hyp32))
(assert (! (forall ((s13 PZA) (s23 PZA)) (=> (and (seq s13) (seq s23)) (forall ((x145 A)) (= (exists ((x146 Int) (x147 PZA)) (and (cnc s13 s23 x147) (MS1 x146 x145 x147))) (or (exists ((x148 Int)) (MS1 x148 x145 s13)) (exists ((x149 Int)) (MS1 x149 x145 s23))))))) :named hyp33))
(assert (! (forall ((s14 PZA) (s24 PZA) (i2 Int)) (=> (and (seq s14) (seq s24) (<= 1 i2) (forall ((x150 Int)) (=> (length s14 x150) (<= i2 x150)))) (exists ((x151 PZA)) (and (cnc s14 s24 x151) (exists ((x152 A)) (and (MS1 i2 x152 s14) (MS1 i2 x152 x151))))))) :named hyp34))
(assert (! (forall ((s15 PZA) (s25 PZA) (i3 Int)) (=> (and (seq s15) (seq s25) (forall ((x153 Int)) (=> (length s15 x153) (<= (+ x153 1) i3))) (forall ((x154 Int) (x155 Int)) (=> (and (length s15 x155) (length s25 x154)) (<= i3 (+ x155 x154))))) (exists ((x156 PZA)) (and (cnc s15 s25 x156) (exists ((x157 A)) (and (exists ((x158 Int)) (and (forall ((x159 Int)) (=> (length s15 x159) (= x158 (- i3 x159)))) (MS1 x158 x157 s25))) (MS1 i3 x157 x156))))))) :named hyp35))
(assert (! (forall ((x160 A) (x161 A)) (not (and (MS0 x160 x161 r) (= x160 x161)))) :named hyp36))
(assert (! (and (forall ((x162 A) (x163 A) (x164 Nat$)) (=> (dist x162 x163 (to_int$ x164)) (and (MS x162 a) (MS x163 a) (<= 0 (to_int$ x164))))) (forall ((x165 A) (x166 A) (x167 Int) (x168 Int)) (=> (and (dist x165 x166 x167) (dist x165 x166 x168)) (= x167 x168))) (forall ((x169 A) (x170 A)) (=> (and (MS x169 a) (MS x170 a)) (exists ((x171 Int)) (dist x169 x170 x171))))) :named hyp37))
(assert (! (forall ((x172 A) (y0 A)) (=> (and (MS x172 a) (MS y0 a)) (exists ((x173 Int)) (and (exists ((x174 PZA)) (and (exists ((x175 A) (x176 A)) (and (= x175 x172) (= x176 y0) (path x175 x176 x174))) (length x174 x173))) (forall ((x177 Int)) (=> (exists ((x178 PZA)) (and (exists ((x179 A) (x180 A)) (and (= x179 x172) (= x180 y0) (path x179 x180 x178))) (length x178 x177))) (<= x173 x177))) (dist x172 y0 x173))))) :named hyp38))
(assert (! (forall ((x181 PZA) (x182 PZA)) (= (reverse x181 x182) (exists ((s5 PZA)) (and (seq s5) (forall ((x183 Int) (x184 A)) (= (MS1 x183 x184 x181) (MS1 x183 x184 s5))) (forall ((x185 Int) (x186 A)) (= (MS1 x185 x186 x182) (exists ((i4 Int)) (and (<= 1 i4) (forall ((x187 Int)) (=> (length s5 x187) (<= i4 x187))) (= x185 i4) (exists ((x188 Int)) (and (forall ((x189 Int)) (=> (length s5 x189) (= x188 (+ (- x189 i4) 1)))) (MS1 x188 x186 s5))))))))))) :named hyp39))
(assert (! (and (forall ((x190 PZA) (x191 PZA)) (=> (reverse x190 x191) (and (seq x190) (seq x191)))) (forall ((x192 PZA) (x193 PZA) (x194 PZA)) (=> (and (reverse x192 x193) (reverse x192 x194)) (forall ((x195 Int) (x196 A)) (= (MS1 x195 x196 x193) (MS1 x195 x196 x194))))) (forall ((x197 PZA)) (=> (seq x197) (exists ((x198 PZA)) (reverse x197 x198))))) :named hyp40))
(assert (! (forall ((s6 PZA)) (=> (seq s6) (exists ((x199 PZA) (x200 Int)) (and (reverse s6 x199) (length s6 x200) (length x199 x200))))) :named hyp41))
(assert (! (forall ((s7 PZA)) (=> (seq s7) (forall ((x201 A)) (= (exists ((x202 Int) (x203 PZA)) (and (reverse s7 x203) (MS1 x202 x201 x203))) (exists ((x204 Int)) (MS1 x204 x201 s7)))))) :named hyp42))
(assert (! (forall ((s8 PZA)) (=> (seq s8) (exists ((x205 PZA)) (and (reverse s8 x205) (reverse x205 s8))))) :named hyp43))
(assert (! (forall ((x206 A) (x207 A)) (=> (MS0 x206 x207 r) (MS0 x207 x206 r))) :named hyp44))
(assert (! (forall ((x208 A) (y3 A) (p1 PZA)) (=> (path x208 y3 p1) (exists ((x209 PZA)) (and (reverse p1 x209) (path y3 x208 x209))))) :named hyp45))
(assert (! (forall ((x210 A) (y4 A)) (=> (and (MS x210 a) (MS y4 a)) (forall ((x211 PZA)) (= (exists ((x212 A) (x213 A)) (and (= x212 y4) (= x213 x210) (path x212 x213 x211))) (exists ((x214 PZA)) (and (exists ((x215 A) (x216 A)) (and (= x215 x210) (= x216 y4) (path x215 x216 x214))) (reverse x214 x211))))))) :named hyp46))
(assert (! (forall ((x217 A) (y5 A)) (=> (and (MS x217 a) (MS y5 a)) (exists ((x218 Int)) (and (dist y5 x217 x218) (dist x217 y5 x218))))) :named hyp47))
(assert (! (forall ((x219 A) (x220 A) (x221 PZA)) (= (shpath x219 x220 x221) (exists ((x222 A) (y6 A) (p2 PZA)) (and (path x222 y6 p2) (exists ((x223 Int)) (and (length p2 x223) (dist x222 y6 x223))) (= x219 x222) (= x220 y6) (forall ((x224 Int) (x225 A)) (= (MS1 x224 x225 x221) (MS1 x224 x225 p2))))))) :named hyp48))
(assert (! (forall ((x226 A) (y7 A) (p3 PZA)) (=> (path x226 y7 p3) (and (exists ((x227 Int)) (dist x226 y7 x227)) (forall ((x228 A) (x229 A) (x230 Int) (x231 Int)) (=> (and (dist x228 x229 x230) (dist x228 x229 x231)) (= x230 x231))) (exists ((x232 Int)) (length p3 x232)) (forall ((x233 PZA) (x234 Int) (x235 Int)) (=> (and (length x233 x234) (length x233 x235)) (= x234 x235)))))) :named hyp49))
(assert (! (forall ((x236 A) (y8 A)) (=> (and (MS x236 a) (MS y8 a)) (exists ((x237 PZA)) (shpath x236 y8 x237)))) :named hyp50))
(assert (! (forall ((y12 A) (y21 A) (x238 A) (x1100 A) (p4 PZA) (q1 PZA)) (=> (and (MS y12 a) (MS y21 a) (MS x238 a) (MS x1100 a) (path x238 y12 q1) (path y21 x1100 p4) (MS0 x1100 x238 r)) (exists ((x239 PZA)) (and (cnc p4 q1 x239) (path y21 y12 x239))))) :named hyp51))
(assert (! (forall ((x240 A) (y9 A) (p5 PZA) (i5 Int)) (=> (and (MS x240 a) (MS y9 a) (path x240 y9 p5) (<= 2 i5) (forall ((x241 Int)) (=> (length p5 x241) (<= i5 (- x241 1))))) (exists ((x242 A) (x243 PZA)) (and (MS1 i5 x242 p5) (forall ((x244 Int) (x245 A)) (= (MS1 x244 x245 x243) (and (MS1 x244 x245 p5) (<= 1 x244) (<= x244 i5)))) (path x240 x242 x243))))) :named hyp52))
(assert (! (forall ((x246 A) (y22 A) (p6 PZA)) (=> (and (MS x246 a) (MS y22 a) (path x246 y22 p6) (forall ((x247 Int)) (=> (length p6 x247) (<= 3 x247)))) (exists ((x248 A) (x249 PZA)) (and (exists ((x250 PZA)) (and (reverse p6 x250) (exists ((x251 Int)) (and (forall ((x252 Int)) (=> (length p6 x252) (= x251 (- x252 1)))) (MS1 x251 x248 x250))))) (forall ((x253 Int) (x254 A)) (= (MS1 x253 x254 x249) (and (exists ((x255 PZA)) (and (reverse p6 x255) (MS1 x253 x254 x255))) (<= 1 x253) (forall ((x256 Int)) (=> (length p6 x256) (<= x253 (- x256 1))))))) (path y22 x248 x249))))) :named hyp53))
(assert (! (forall ((x257 A) (y13 A) (p7 PZA)) (=> (shpath x257 y13 p7) (exists ((x258 PZA)) (and (reverse p7 x258) (shpath y13 x257 x258))))) :named hyp54))
(assert (! (forall ((x259 A) (x260 A) (x261 PZA)) (= (path x259 x260 x261) (exists ((x262 A) (y14 A) (p8 PZA)) (and (MS x262 a) (MS y14 a) (exists ((n3 Nat$)) (and (<= 0 (to_int$ n3)) (< 1 (to_int$ n3)) (forall ((x263 Int) (x264 A)) (=> (MS1 x263 x264 p8) (and (<= 1 x263) (<= x263 (to_int$ n3)) (MS x264 a)))) (forall ((x265 Int) (x266 A) (x267 A)) (=> (and (MS1 x265 x266 p8) (MS1 x265 x267 p8)) (= x266 x267))) (forall ((x268 Int)) (=> (and (<= 1 x268) (<= x268 (to_int$ n3))) (exists ((x269 A)) (MS1 x268 x269 p8)))) (exists ((x270 Int)) (and (= x270 1) (MS1 x270 x262 p8))) (MS1 (to_int$ n3) y14 p8) (forall ((i6 Int)) (=> (and (<= 1 i6) (<= i6 (- (to_int$ n3) 1))) (exists ((x271 A) (x272 A)) (and (MS1 i6 x271 p8) (exists ((x273 Int)) (and (= x273 (+ i6 1)) (MS1 x273 x272 p8))) (MS0 x271 x272 r))))))) (= x259 x262) (= x260 y14) (forall ((x274 Int) (x275 A)) (= (MS1 x274 x275 x261) (MS1 x274 x275 p8))))))) :named hyp55))
(assert (! (forall ((x276 A)) (= (MS x276 candidate) (exists ((z2 A)) (and (MS z2 a) (forall ((x277 A) (y15 A)) (=> (and (MS x277 a) (not (= x277 z2)) (MS y15 a) (not (= y15 z2)) (not (= x277 y15))) (exists ((p9 PZA)) (and (exists ((x278 A) (x279 A)) (and (= x278 x277) (= x279 y15) (path x278 x279 p9))) (not (exists ((x280 Int)) (MS1 x280 z2 p9))))))) (= x276 z2))))) :named hyp56))
(assert (! (forall ((u A)) (=> (MS u candidate) (forall ((x281 A) (x282 A)) (=> (and (MS x281 a) (not (= x281 u)) (MS x282 a) (not (= x282 u)) (not (= x281 x282))) (exists ((x283 A) (y16 A) (p10 PZA)) (and (MS x283 a) (not (= x283 u)) (MS y16 a) (not (= y16 u)) (not (= x283 y16)) (exists ((n4 Nat$)) (and (<= 0 (to_int$ n4)) (< 1 (to_int$ n4)) (forall ((x284 Int) (x285 A)) (=> (MS1 x284 x285 p10) (and (<= 1 x284) (<= x284 (to_int$ n4)) (MS x285 a) (not (= x285 u))))) (forall ((x286 Int) (x287 A) (x288 A)) (=> (and (MS1 x286 x287 p10) (MS1 x286 x288 p10)) (= x287 x288))) (forall ((x289 Int)) (=> (and (<= 1 x289) (<= x289 (to_int$ n4))) (exists ((x290 A)) (MS1 x289 x290 p10)))) (exists ((x291 Int)) (and (= x291 1) (MS1 x291 x283 p10))) (MS1 (to_int$ n4) y16 p10) (forall ((i7 Int)) (=> (and (<= 1 i7) (<= i7 (- (to_int$ n4) 1))) (exists ((x292 A) (x293 A)) (and (MS1 i7 x292 p10) (exists ((x294 Int)) (and (= x294 (+ i7 1)) (MS1 x294 x293 p10))) (MS0 x292 x293 r))))))) (= x281 x283) (= x282 y16))))))) :named hyp57))
(assert (! (forall ((s16 PZA) (s26 PZA)) (=> (and (seq s16) (seq s26)) (and (exists ((x295 Int)) (length s16 x295)) (forall ((x296 PZA) (x297 Int) (x298 Int)) (=> (and (length x296 x297) (length x296 x298)) (= x297 x298))) (forall ((i8 Int)) (=> (and (<= 1 i8) (forall ((x299 Int)) (=> (length s16 x299) (<= i8 x299)))) (and (exists ((x300 A)) (MS1 i8 x300 s16)) (forall ((x301 Int) (x302 A) (x303 A)) (=> (and (MS1 x301 x302 s16) (MS1 x301 x303 s16)) (= x302 x303)))))) (exists ((x304 Int)) (length s26 x304)) (forall ((i9 Int)) (=> (and (forall ((x305 Int)) (=> (length s16 x305) (<= (+ x305 1) i9))) (forall ((x306 Int) (x307 Int)) (=> (and (length s16 x307) (length s26 x306)) (<= i9 (+ x307 x306))))) (and (exists ((x308 A) (x309 Int)) (and (forall ((x310 Int)) (=> (length s16 x310) (= x309 (- i9 x310)))) (MS1 x309 x308 s26))) (forall ((x311 Int) (x312 A) (x313 A)) (=> (and (MS1 x311 x312 s26) (MS1 x311 x313 s26)) (= x312 x313))))))))) :named hyp58))
(assert (! (forall ((s9 PZA)) (=> (seq s9) (and (exists ((x314 Int)) (length s9 x314)) (forall ((x315 PZA) (x316 Int) (x317 Int)) (=> (and (length x315 x316) (length x315 x317)) (= x316 x317))) (forall ((i10 Int)) (=> (and (<= 1 i10) (forall ((x318 Int)) (=> (length s9 x318) (<= i10 x318)))) (and (exists ((x319 A) (x320 Int)) (and (forall ((x321 Int)) (=> (length s9 x321) (= x320 (+ (- x321 i10) 1)))) (MS1 x320 x319 s9))) (forall ((x322 Int) (x323 A) (x324 A)) (=> (and (MS1 x322 x323 s9) (MS1 x322 x324 s9)) (= x323 x324))))))))) :named hyp59))
(assert (! (forall ((x325 A) (y17 A) (p11 PZA) (i11 Int)) (=> (and (MS x325 a) (MS y17 a) (seq p11) (shpath x325 y17 p11) (exists ((x326 A)) (MS1 i11 x326 p11)) (not (= i11 1)) (not (length p11 i11))) (exists ((x327 A) (x328 PZA)) (and (MS1 i11 x327 p11) (forall ((x329 Int) (x330 A)) (= (MS1 x329 x330 x328) (and (MS1 x329 x330 p11) (<= 1 x329) (<= x329 i11)))) (shpath x325 x327 x328))))) :named hyp60))
(assert (! (forall ((x331 A) (y18 A) (p12 PZA) (i12 Int)) (=> (and (MS x331 a) (MS y18 a) (seq p12) (shpath x331 y18 p12) (exists ((x332 A)) (MS1 i12 x332 p12)) (not (= i12 1)) (not (length p12 i12))) (and (exists ((x333 A)) (and (MS1 i12 x333 p12) (dist x331 x333 i12))) (exists ((x334 A) (x335 Int)) (and (exists ((x336 Int)) (and (= x336 (+ i12 1)) (MS1 x336 x334 p12))) (= x335 (+ i12 1)) (dist x331 x334 x335))) (exists ((x337 A) (x338 A)) (and (MS1 i12 x337 p12) (exists ((x339 Int)) (and (= x339 (+ i12 1)) (MS1 x339 x338 p12))) (MS0 x337 x338 r)))))) :named hyp61))
(assert (! (forall ((x340 A) (y19 A) (p13 PZA) (z3 A)) (=> (and (MS x340 a) (MS y19 a) (seq p13) (shpath x340 y19 p13) (exists ((x341 Int)) (MS1 x341 z3 p13)) (not (= z3 x340)) (not (= z3 y19))) (exists ((t2 A)) (and (MS t2 a) (forall ((x342 Int) (x343 Int)) (=> (and (dist x340 z3 x343) (dist x340 t2 x342)) (< x343 x342))) (MS0 z3 t2 r))))) :named hyp62))
(assert (! (forall ((x344 A) (y23 A) (z4 A)) (=> (and (MS x344 a) (MS y23 a) (MS z4 a) (not (= z4 x344)) (not (= z4 y23)) (forall ((t3 A)) (=> (and (MS t3 a) (MS0 z4 t3 r)) (forall ((x345 Int) (x346 Int)) (=> (and (dist x344 t3 x346) (dist x344 z4 x345)) (<= x346 x345)))))) (exists ((q2 PZA)) (and (path x344 y23 q2) (not (exists ((x347 Int)) (MS1 x347 z4 q2))))))) :named hyp63))
(assert (! (forall ((x348 A) (x349 A)) (=> (and (MS x348 a) (MS x349 a)) (MS0 x348 x349 c))) :named hyp64))
(assert (! (not (forall ((x350 A)) (MS x350 a))) :named hyp65))
(assert (! (forall ((s17 PZA) (s27 PZA) (b PA)) (=> (and (seq s17) (seq s27) (forall ((x351 A)) (=> (exists ((x352 Int)) (MS1 x352 x351 s17)) (MS x351 b))) (forall ((x353 A)) (=> (exists ((x354 Int)) (MS1 x354 x353 s27)) (MS x353 b)))) (and (forall ((x355 Int) (x356 A)) (=> (exists ((x357 PZA)) (and (cnc s17 s27 x357) (MS1 x355 x356 x357))) (and (<= 1 x355) (forall ((x358 Int) (x359 Int)) (=> (and (length s17 x359) (length s27 x358)) (<= x355 (+ x359 x358)))) (MS x356 b)))) (forall ((x360 Int) (x361 A) (x362 A)) (=> (and (exists ((x363 PZA)) (and (cnc s17 s27 x363) (MS1 x360 x361 x363))) (exists ((x364 PZA)) (and (cnc s17 s27 x364) (MS1 x360 x362 x364)))) (= x361 x362))) (forall ((x365 Int)) (=> (and (<= 1 x365) (forall ((x366 Int) (x367 Int)) (=> (and (length s17 x367) (length s27 x366)) (<= x365 (+ x367 x366))))) (exists ((x368 A) (x369 PZA)) (and (cnc s17 s27 x369) (MS1 x365 x368 x369)))))))) :named hyp66))
(assert (! (forall ((x370 A) (x371 A) (x372 PZA)) (= (path x370 x371 x372) (exists ((x373 A) (y24 A) (p14 PZA)) (and (seq p14) (forall ((x374 A)) (=> (exists ((x375 Int)) (MS1 x375 x374 p14)) (MS x374 a))) (forall ((x376 Int)) (=> (length p14 x376) (< 1 x376))) (exists ((x377 Int)) (and (= x377 1) (MS1 x377 x373 p14))) (exists ((x378 Int)) (and (length p14 x378) (MS1 x378 y24 p14))) (forall ((i13 Int)) (=> (and (<= 1 i13) (forall ((x379 Int)) (=> (length p14 x379) (<= i13 (- x379 1))))) (exists ((x380 A) (x381 A)) (and (MS1 i13 x380 p14) (exists ((x382 Int)) (and (= x382 (+ i13 1)) (MS1 x382 x381 p14))) (MS0 x380 x381 r))))) (= x370 x373) (= x371 y24) (forall ((x383 Int) (x384 A)) (= (MS1 x383 x384 x372) (MS1 x383 x384 p14))))))) :named hyp67))
(assert (! (forall ((x385 A) (y25 A) (p15 PZA)) (=> (and (seq p15) (forall ((x386 A)) (=> (exists ((x387 Int)) (MS1 x387 x386 p15)) (MS x386 a)))) (and (exists ((x388 Int)) (length p15 x388)) (forall ((x389 PZA) (x390 Int) (x391 Int)) (=> (and (length x389 x390) (length x389 x391)) (= x390 x391))) (=> (forall ((x392 Int)) (=> (length p15 x392) (< 1 x392))) (and (exists ((x393 A) (x394 Int)) (and (= x394 1) (MS1 x394 x393 p15))) (forall ((x395 Int) (x396 A) (x397 A)) (=> (and (MS1 x395 x396 p15) (MS1 x395 x397 p15)) (= x396 x397))) (=> (exists ((x398 Int)) (and (= x398 1) (MS1 x398 x385 p15))) (and (exists ((x399 A) (x400 Int)) (and (length p15 x400) (MS1 x400 x399 p15))) (=> (exists ((x401 Int)) (and (length p15 x401) (MS1 x401 y25 p15))) (forall ((i14 Int)) (=> (and (<= 1 i14) (forall ((x402 Int)) (=> (length p15 x402) (<= i14 (- x402 1))))) (and (exists ((x403 A)) (MS1 i14 x403 p15)) (exists ((x404 A) (x405 Int)) (and (= x405 (+ i14 1)) (MS1 x405 x404 p15)))))))))))))) :named hyp68))
(assert (! (not (exists ((x406 Int)) (dist x z x406))) :named goal))
(check-sat)
(exit)
