nat_inputs/nat_fail_logs/smt8466284514793256686.out
(error "Parse Error: nat_inputs/smt8466284514793256686.smt2:53.690: argument type is not the type of the function's argument type:
argument:  n
has type:  Nat$
not type: Int
in term : (MS1 n x56 s0)")
